%%% static parameters %%%
timespan = 1;
Fact = [2];
Distr1 = [5];
Distr2 = [10];
Clients_N = [100];
Demand_W = [15];
Lt0 = [4];
Lt1 = [4];
SS_ = [0.85];
DS_D = [8];
K = [200];
MA = [500];
%%% dynamic parameters %%%
lost_ratio_sales_ret_th = 0.07526423754754274;
lost_ratio_sales_ret_w = 8;
lost_ratio_sales_dis_th = 0.271084152174473;
lost_ratio_sales_dis_w = 27;
lost_ratio_sales_fac_th = 0.5648076851484994;
lost_ratio_sales_fac_w = 34;
stock_customer_MA_mean_relative_th = 0.08048586305337324;
stock_customer_MA_mean_relative_w = 21;
stock_distributor_MA_mean_relative_th = 0.8562368447236708;
stock_distributor_MA_mean_relative_w = 83;
stock_retailer_MA_mean_relative_th = 0.697526038439975;
stock_retailer_MA_mean_relative_w = 8;
stock_factory_MA_mean_relative_th = 0.624913491056143;
stock_factory_MA_mean_relative_w = 51;
